7 41 
77 36 
77 88 
91 59 
29 6 
35 79 
47 30 
10 55 
5 64 
8 29 
92 47 
24 47 
53 18 
61 6 
35 34 
29 94 
27 7 
31 56 
47 74 
67 76 
80 2 
56 80 
85 18 
35 90 
34 95 
71 27 
43 47 
74 48 
17 88 
6 53 
74 36 
99 1 
43 30 
57 90 
56 24 
18 89 
78 74 
69 63 
93 56 
5 27 
4 77 
6 47 
76 81 
47 46 
21 53 
99 95 
41 50 
96 36 
33 5 
78 89 
